p wcnf 137 274 275 
1 -128 -50 0 
1 -48 36 0 
1 101 -71 0 
1 71 89 0 
1 -78 50 0 
1 70 -104 0 
1 49 -124 0 
1 -136 46 0 
1 92 -5 0 
1 -127 -72 0 
1 -132 121 0 
1 -88 -79 0 
1 -84 119 0 
1 84 -132 0 
1 16 134 0 
1 99 25 0 
1 -13 -28 0 
1 -119 11 0 
1 14 20 0 
1 48 -18 0 
1 124 -135 0 
1 63 -56 0 
1 -14 -22 0 
1 -71 -8 0 
1 76 -121 0 
1 -73 -29 0 
1 3 17 0 
1 90 -66 0 
1 -41 -14 0 
1 99 95 0 
1 124 -13 0 
1 58 -130 0 
1 89 -35 0 
1 -38 89 0 
1 5 -12 0 
1 -31 130 0 
1 -59 83 0 
1 9 94 0 
1 -109 68 0 
1 83 77 0 
1 128 -58 0 
1 35 -99 0 
1 14 -92 0 
1 110 34 0 
1 81 -90 0 
1 -26 44 0 
1 -58 -12 0 
1 -104 -92 0 
1 -121 59 0 
1 -70 -79 0 
1 -124 81 0 
1 123 65 0 
1 -18 -9 0 
1 93 -130 0 
1 -20 -59 0 
1 -95 72 0 
1 -125 -8 0 
1 -60 -109 0 
1 -86 13 0 
1 -21 -90 0 
1 111 118 0 
1 -28 76 0 
1 -4 50 0 
1 32 -123 0 
1 -107 -34 0 
1 -4 14 0 
1 65 40 0 
1 33 -80 0 
1 -32 73 0 
1 25 -71 0 
1 -83 16 0 
1 52 -68 0 
1 89 100 0 
1 -56 -114 0 
1 -75 13 0 
1 135 77 0 
1 -44 86 0 
1 -80 -61 0 
1 70 93 0 
1 -67 5 0 
1 12 4 0 
1 3 -77 0 
1 -40 -64 0 
1 -105 69 0 
1 -132 -8 0 
1 122 79 0 
1 51 -22 0 
1 -37 -60 0 
1 -25 -91 0 
1 128 29 0 
1 -80 115 0 
1 121 -57 0 
1 31 -114 0 
1 51 -23 0 
1 35 -88 0 
1 10 -76 0 
1 -5 -39 0 
1 -82 -14 0 
1 26 125 0 
1 -124 -101 0 
1 -76 12 0 
1 -7 -117 0 
1 6 -23 0 
1 -93 -73 0 
1 127 -82 0 
1 123 122 0 
1 27 -32 0 
1 -112 -36 0 
1 89 130 0 
1 48 53 0 
1 65 136 0 
1 68 36 0 
1 27 83 0 
1 48 -37 0 
1 -29 53 0 
1 49 -105 0 
1 -98 -68 0 
1 -39 94 0 
1 -34 90 0 
1 -35 43 0 
1 -20 48 0 
1 -5 4 0 
1 -53 -120 0 
1 -106 -93 0 
1 41 14 0 
1 127 -28 0 
1 -136 66 0 
1 131 63 0 
1 -81 -92 0 
1 -89 109 0 
1 -35 84 0 
1 24 71 0 
1 6 76 0 
1 -60 -62 0 
1 49 33 0 
1 69 112 0 
1 -31 120 0 
1 94 87 0 
1 -89 50 0 
1 71 -73 0 
1 129 -135 0 
1 36 67 0 
1 33 -107 0 
1 77 -131 0 
1 -58 -132 0 
1 -125 59 0 
1 91 96 0 
1 62 106 0 
1 -115 -126 0 
1 -6 131 0 
1 9 130 0 
1 43 29 0 
1 -124 21 0 
1 -58 -25 0 
1 -37 81 0 
1 3 28 0 
1 -5 -21 0 
1 117 -43 0 
1 -135 -82 0 
1 11 -68 0 
1 17 83 0 
1 130 78 0 
1 -95 109 0 
1 -114 -128 0 
1 -39 -112 0 
1 -67 9 0 
1 -72 -111 0 
1 40 4 0 
1 -100 -93 0 
1 -9 -90 0 
1 -108 55 0 
1 -82 -67 0 
1 -95 -13 0 
1 -109 -126 0 
1 83 -11 0 
1 63 98 0 
1 22 -136 0 
1 -4 80 0 
1 -129 11 0 
1 109 78 0 
1 45 50 0 
1 -135 -111 0 
1 32 -55 0 
1 -91 -119 0 
1 128 -56 0 
1 -46 82 0 
1 127 33 0 
1 72 47 0 
1 30 81 0 
1 -124 56 0 
1 -107 100 0 
1 -49 73 0 
1 106 22 0 
1 114 108 0 
1 -43 -66 0 
1 46 -14 0 
1 -71 15 0 
1 120 75 0 
1 -7 115 0 
1 95 71 0 
1 -115 86 0 
1 76 77 0 
1 58 -33 0 
1 2 -83 0 
1 18 40 0 
1 -73 21 0 
1 47 -53 0 
1 60 121 0 
1 66 -95 0 
1 65 -131 0 
1 -67 -13 0 
1 -49 120 0 
1 114 -49 0 
1 -54 8 0 
1 125 86 0 
1 -133 124 0 
1 112 103 0 
1 -137 -133 0 
1 -137 89 0 
1 -115 -49 0 
1 -96 -27 0 
1 73 -57 0 
1 -114 106 0 
1 -128 16 0 
1 -79 93 0 
1 -108 136 0 
1 -86 78 0 
1 72 100 0 
1 -46 -108 0 
1 19 -91 0 
1 -124 -7 0 
1 31 -47 0 
1 -83 35 0 
1 12 7 0 
1 37 32 0 
1 111 23 0 
1 -4 -110 0 
1 73 90 0 
1 -55 69 0 
1 136 -137 0 
1 85 1 0 
1 -116 -129 0 
1 13 -65 0 
1 -39 -58 0 
1 -27 -98 0 
1 89 31 0 
1 59 46 0 
1 28 1 0 
1 46 103 0 
1 25 -34 0 
1 95 24 0 
1 -91 121 0 
1 102 -13 0 
1 43 98 0 
1 -51 93 0 
1 -10 29 0 
1 16 -63 0 
1 132 8 0 
1 -10 -109 0 
1 16 102 0 
1 23 115 0 
1 -2 17 0 
1 -19 -96 0 
1 -80 -70 0 
1 -54 75 0 
1 24 -123 0 
1 -112 -116 0 
1 119 116 0 
1 48 121 0 
1 15 103 0 
1 77 108 0 
1 -52 131 0 
1 -62 -100 0 
1 85 131 0 
